c Random 4-CNF over 20 variables and 80 clauses
c Generated with `cnfgen`
c (C) 2012-2016 Massimo Lauria <lauria.massimo@gmail.com>
c https://massimolauria.github.io/cnfgen
c
c COMMAND LINE: cnfgen --output tmp-4-20-80.dimacs --output-format dimacs randkcnf 4 20 80
c
c sdimacs generated by gen-sdimacs
c
p cnf 20 80
r 0.5 1 2 3 4 5 6 7 8 9 10 0
e  11 12 13 14 15 16 17 18 19 20 0
7 -8 13 -18 0
2 4 6 14 0
-4 6 16 20 0
6 9 14 -15 0
-1 2 -13 -19 0
1 6 15 19 0
8 -11 -16 -20 0
2 -12 -18 19 0
9 -11 14 18 0
-4 -10 -11 -13 0
2 3 -15 17 0
6 -7 -12 18 0
-1 -11 13 -17 0
-6 9 -11 17 0
-7 13 14 -16 0
-2 -7 18 20 0
8 13 -19 -20 0
-2 -9 14 -19 0
2 -3 -5 16 0
-3 6 -7 12 0
2 5 17 -18 0
6 9 11 -19 0
-3 -5 -12 -15 0
-6 7 14 18 0
1 8 -11 -12 0
11 -17 -19 -20 0
-4 -6 7 -17 0
-4 -7 13 -20 0
-12 -16 17 20 0
-4 5 9 -17 0
-8 10 -14 -18 0
-4 5 14 -15 0
7 8 16 -19 0
4 -5 -7 -10 0
6 -7 -9 12 0
-5 -7 13 -17 0
-6 14 -17 -19 0
8 -10 14 20 0
-8 -12 19 20 0
1 -5 -8 -19 0
-7 -11 -13 -18 0
-1 4 -7 -9 0
-10 16 -17 18 0
-10 13 -17 -20 0
-1 3 -13 -17 0
8 -16 17 -19 0
-1 -2 3 -14 0
3 8 14 -15 0
4 -13 14 -20 0
-7 11 13 20 0
-7 9 12 17 0
-8 14 17 -18 0
-4 5 -13 -16 0
1 -3 4 -11 0
3 5 9 -19 0
2 11 16 20 0
4 8 -17 18 0
7 15 18 -20 0
-3 13 15 -19 0
-7 -15 16 20 0
-5 -14 -17 -19 0
1 3 18 19 0
4 11 19 -20 0
-7 9 -15 -19 0
-2 -4 9 11 0
-6 8 16 -19 0
8 9 12 -14 0
-1 -6 12 14 0
1 2 14 -20 0
10 13 -15 -19 0
2 5 -13 15 0
7 18 -19 -20 0
2 15 16 -20 0
12 -13 -16 -19 0
1 8 -9 20 0
5 -7 -8 11 0
1 5 -12 19 0
1 11 12 15 0
-4 6 7 12 0
-1 13 14 18 0
